17
0 1000 948 544
0 947 895 528
0 894 843 521
0 842 791 510
0 790 738 554
0 737 683 551
0 682 628 531
0 627 571 544
0 570 513 578
0 512 456 548
0 455 397 563
0 396 339 551
0 338 285 540
0 284 230 583
0 229 173 584
0 172 117 591
0 116 61 589
4936135
